problems/csplib-prob015/SchursLemma-models/noch/O2/lingeling/model_1_2-4-12-solution000001.eprime-solution
language ESSENCE' 1.0

letting boxes_PartitionAsSet_ExplicitR6_ExplicitVarSizeWithDummy be
        [[1, 3, 6, 10, 12, 13, 13, 13, 13, 13, 13, 13; int(1..12)],
         [2, 5, 13, 13, 13, 13, 13, 13, 13, 13, 13, 13; int(1..12)],
         [4, 13, 13, 13, 13, 13, 13, 13, 13, 13, 13, 13; int(1..12)],
         [7, 8, 9, 11, 13, 13, 13, 13, 13, 13, 13, 13; int(1..12)]; int(1..4)]
