problems/csplib-prob015/SchursLemma-models/noch/O2/lingeling/model_1_2-4-12-solution000001.solution
language Essence 1.3

letting boxes be partition({1, 3, 6, 10, 12}, {2, 5}, {4}, {7, 8, 9, 11})
